Traveling Salesman Problem/TSP_generados/Aleatorio1620394958_17.tsp
NAME: Aleatorio1620394958_17.tsp
COMMENT: Randomly generated scenario
TYPE: TSP
DIMENSION: 17
EDGE_WEIGHT_TYPE: ATT
NODE_COORD_SECTION
1 8.57 1.11
2 1.83 3.0
3 14.57 24.29
4 32.29 5.41
5 43.84 24.55
6 11.71 45.13
7 29.55 15.23
8 44.4 27.96
9 1.29 3.62
10 21.22 44.88
11 7.15 30.58
12 14.71 31.23
13 1.42 42.33
14 47.29 20.4
15 14.16 46.3
16 26.28 22.49
17 25.66 38.01
