Traveling Salesman Problem/TSP_generados/Aleatorio1620394958_17.opt.tour
NAME: Aleatorio1620394958_17.opt.tour
COMMENT: Optimal solution for Aleatorio1620394958_17 (182.24808552883454)
TYPE: TOUR
DIMENSION: 17
TOUR_SECTION
1 2 9 3 12 11 13 6 15 10 17 8 5 14 16 7 4
-1
EOF
